language Essence 1.3
letting nnodes be 120
letting nrings be 60
letting capacity be 60
letting demand be 
{{1, 2},
{1, 5},
{1, 6},
{1, 7},
{1, 11},
{1, 12},
{1, 13},
{1, 14},
{1, 16},
{1, 17},
{1, 19},
{1, 22},
{1, 24},
{1, 27},
{1, 28},
{1, 31},
{1, 33},
{1, 34},
{1, 36},
{1, 37},
{1, 38},
{1, 39},
{1, 40},
{1, 41},
{1, 44},
{1, 45},
{1, 49},
{1, 50},
{1, 55},
{1, 56},
{1, 60},
{1, 61},
{1, 63},
{1, 67},
{1, 70},
{1, 71},
{1, 72},
{1, 73},
{1, 74},
{1, 75},
{1, 78},
{1, 80},
{1, 83},
{1, 85},
{1, 87},
{1, 88},
{1, 89},
{1, 91},
{1, 92},
{1, 96},
{1, 98},
{1, 101},
{1, 102},
{1, 103},
{1, 104},
{1, 105},
{1, 107},
{1, 108},
{1, 109},
{1, 112},
{1, 113},
{1, 114},
{1, 118},
{2, 8},
{2, 9},
{2, 10},
{2, 12},
{2, 14},
{2, 15},
{2, 19},
{2, 20},
{2, 21},
{2, 24},
{2, 27},
{2, 29},
{2, 30},
{2, 31},
{2, 34},
{2, 35},
{2, 36},
{2, 37},
{2, 38},
{2, 39},
{2, 41},
{2, 42},
{2, 43},
{2, 48},
{2, 49},
{2, 50},
{2, 51},
{2, 53},
{2, 56},
{2, 58},
{2, 59},
{2, 60},
{2, 62},
{2, 64},
{2, 65},
{2, 67},
{2, 68},
{2, 69},
{2, 71},
{2, 74},
{2, 75},
{2, 77},
{2, 79},
{2, 81},
{2, 82},
{2, 85},
{2, 86},
{2, 87},
{2, 88},
{2, 89},
{2, 90},
{2, 93},
{2, 94},
{2, 95},
{2, 96},
{2, 99},
{2, 100},
{2, 101},
{2, 103},
{2, 105},
{2, 106},
{2, 111},
{2, 112},
{2, 114},
{2, 115},
{2, 117},
{2, 118},
{2, 119},
{3, 6},
{3, 7},
{3, 10},
{3, 11},
{3, 13},
{3, 14},
{3, 15},
{3, 16},
{3, 18},
{3, 22},
{3, 23},
{3, 27},
{3, 30},
{3, 31},
{3, 32},
{3, 34},
{3, 36},
{3, 40},
{3, 41},
{3, 43},
{3, 44},
{3, 46},
{3, 47},
{3, 48},
{3, 49},
{3, 53},
{3, 55},
{3, 56},
{3, 58},
{3, 62},
{3, 66},
{3, 67},
{3, 72},
{3, 73},
{3, 74},
{3, 75},
{3, 76},
{3, 81},
{3, 82},
{3, 83},
{3, 84},
{3, 85},
{3, 86},
{3, 87},
{3, 89},
{3, 94},
{3, 95},
{3, 97},
{3, 99},
{3, 100},
{3, 101},
{3, 105},
{3, 108},
{3, 109},
{3, 110},
{3, 113},
{3, 115},
{3, 118},
{4, 6},
{4, 14},
{4, 19},
{4, 20},
{4, 21},
{4, 31},
{4, 33},
{4, 34},
{4, 35},
{4, 36},
{4, 38},
{4, 39},
{4, 40},
{4, 42},
{4, 43},
{4, 47},
{4, 49},
{4, 50},
{4, 51},
{4, 55},
{4, 56},
{4, 59},
{4, 61},
{4, 64},
{4, 65},
{4, 67},
{4, 68},
{4, 70},
{4, 73},
{4, 75},
{4, 77},
{4, 78},
{4, 80},
{4, 81},
{4, 82},
{4, 83},
{4, 84},
{4, 85},
{4, 86},
{4, 88},
{4, 92},
{4, 94},
{4, 96},
{4, 99},
{4, 103},
{4, 106},
{4, 107},
{4, 108},
{4, 110},
{4, 111},
{4, 112},
{4, 113},
{4, 115},
{4, 118},
{4, 119},
{5, 6},
{5, 9},
{5, 10},
{5, 11},
{5, 14},
{5, 15},
{5, 17},
{5, 21},
{5, 25},
{5, 29},
{5, 30},
{5, 31},
{5, 32},
{5, 34},
{5, 38},
{5, 41},
{5, 42},
{5, 45},
{5, 47},
{5, 49},
{5, 50},
{5, 53},
{5, 54},
{5, 55},
{5, 57},
{5, 60},
{5, 61},
{5, 63},
{5, 70},
{5, 71},
{5, 74},
{5, 77},
{5, 81},
{5, 82},
{5, 84},
{5, 85},
{5, 86},
{5, 88},
{5, 89},
{5, 90},
{5, 91},
{5, 92},
{5, 94},
{5, 95},
{5, 96},
{5, 98},
{5, 104},
{5, 105},
{5, 111},
{5, 117},
{5, 118},
{5, 119},
{5, 120},
{6, 8},
{6, 11},
{6, 13},
{6, 14},
{6, 15},
{6, 17},
{6, 21},
{6, 23},
{6, 25},
{6, 26},
{6, 27},
{6, 29},
{6, 30},
{6, 32},
{6, 33},
{6, 36},
{6, 38},
{6, 42},
{6, 43},
{6, 45},
{6, 47},
{6, 48},
{6, 50},
{6, 55},
{6, 59},
{6, 60},
{6, 63},
{6, 66},
{6, 67},
{6, 68},
{6, 70},
{6, 72},
{6, 73},
{6, 76},
{6, 79},
{6, 80},
{6, 81},
{6, 82},
{6, 84},
{6, 85},
{6, 87},
{6, 88},
{6, 90},
{6, 95},
{6, 98},
{6, 103},
{6, 104},
{6, 105},
{6, 110},
{6, 111},
{6, 112},
{6, 114},
{6, 115},
{6, 116},
{6, 117},
{6, 118},
{6, 120},
{7, 8},
{7, 9},
{7, 10},
{7, 11},
{7, 14},
{7, 15},
{7, 17},
{7, 18},
{7, 19},
{7, 20},
{7, 30},
{7, 31},
{7, 32},
{7, 33},
{7, 34},
{7, 40},
{7, 42},
{7, 43},
{7, 46},
{7, 47},
{7, 48},
{7, 55},
{7, 57},
{7, 58},
{7, 60},
{7, 61},
{7, 65},
{7, 67},
{7, 69},
{7, 70},
{7, 71},
{7, 73},
{7, 77},
{7, 78},
{7, 79},
{7, 81},
{7, 82},
{7, 84},
{7, 87},
{7, 88},
{7, 89},
{7, 90},
{7, 91},
{7, 93},
{7, 95},
{7, 96},
{7, 97},
{7, 99},
{7, 100},
{7, 103},
{7, 104},
{7, 105},
{7, 108},
{7, 109},
{7, 110},
{7, 111},
{7, 114},
{7, 116},
{7, 117},
{7, 120},
{8, 9},
{8, 10},
{8, 13},
{8, 17},
{8, 19},
{8, 21},
{8, 24},
{8, 27},
{8, 29},
{8, 30},
{8, 31},
{8, 33},
{8, 35},
{8, 37},
{8, 39},
{8, 42},
{8, 43},
{8, 46},
{8, 50},
{8, 52},
{8, 53},
{8, 54},
{8, 56},
{8, 57},
{8, 59},
{8, 63},
{8, 65},
{8, 68},
{8, 69},
{8, 72},
{8, 74},
{8, 76},
{8, 81},
{8, 82},
{8, 86},
{8, 87},
{8, 88},
{8, 89},
{8, 91},
{8, 92},
{8, 93},
{8, 101},
{8, 104},
{8, 110},
{8, 111},
{8, 112},
{8, 116},
{8, 118},
{8, 119},
{9, 10},
{9, 13},
{9, 15},
{9, 16},
{9, 17},
{9, 18},
{9, 20},
{9, 21},
{9, 24},
{9, 25},
{9, 28},
{9, 29},
{9, 30},
{9, 31},
{9, 32},
{9, 34},
{9, 35},
{9, 38},
{9, 39},
{9, 49},
{9, 50},
{9, 53},
{9, 56},
{9, 59},
{9, 61},
{9, 64},
{9, 66},
{9, 67},
{9, 72},
{9, 73},
{9, 74},
{9, 75},
{9, 77},
{9, 78},
{9, 79},
{9, 81},
{9, 82},
{9, 83},
{9, 84},
{9, 85},
{9, 86},
{9, 87},
{9, 88},
{9, 91},
{9, 94},
{9, 95},
{9, 100},
{9, 104},
{9, 105},
{9, 108},
{9, 109},
{9, 111},
{9, 112},
{9, 113},
{9, 115},
{9, 117},
{9, 118},
{9, 119},
{9, 120},
{10, 13},
{10, 14},
{10, 15},
{10, 17},
{10, 18},
{10, 20},
{10, 23},
{10, 28},
{10, 30},
{10, 31},
{10, 35},
{10, 36},
{10, 38},
{10, 39},
{10, 40},
{10, 42},
{10, 44},
{10, 49},
{10, 50},
{10, 54},
{10, 55},
{10, 57},
{10, 58},
{10, 60},
{10, 63},
{10, 64},
{10, 66},
{10, 67},
{10, 68},
{10, 71},
{10, 74},
{10, 75},
{10, 76},
{10, 77},
{10, 79},
{10, 80},
{10, 81},
{10, 82},
{10, 93},
{10, 97},
{10, 98},
{10, 101},
{10, 102},
{10, 105},
{10, 107},
{10, 108},
{10, 109},
{10, 110},
{10, 112},
{10, 113},
{10, 114},
{10, 117},
{10, 120},
{11, 12},
{11, 13},
{11, 14},
{11, 15},
{11, 17},
{11, 21},
{11, 22},
{11, 23},
{11, 24},
{11, 25},
{11, 26},
{11, 30},
{11, 33},
{11, 36},
{11, 37},
{11, 38},
{11, 42},
{11, 43},
{11, 44},
{11, 46},
{11, 47},
{11, 48},
{11, 51},
{11, 57},
{11, 59},
{11, 62},
{11, 63},
{11, 66},
{11, 67},
{11, 68},
{11, 70},
{11, 72},
{11, 74},
{11, 77},
{11, 79},
{11, 83},
{11, 84},
{11, 85},
{11, 88},
{11, 89},
{11, 91},
{11, 93},
{11, 94},
{11, 96},
{11, 97},
{11, 98},
{11, 99},
{11, 100},
{11, 102},
{11, 103},
{11, 105},
{11, 106},
{11, 107},
{11, 109},
{11, 114},
{11, 115},
{11, 116},
{11, 120},
{12, 14},
{12, 15},
{12, 19},
{12, 24},
{12, 25},
{12, 27},
{12, 29},
{12, 31},
{12, 33},
{12, 34},
{12, 35},
{12, 37},
{12, 39},
{12, 42},
{12, 43},
{12, 44},
{12, 45},
{12, 50},
{12, 51},
{12, 52},
{12, 53},
{12, 54},
{12, 55},
{12, 57},
{12, 58},
{12, 59},
{12, 61},
{12, 63},
{12, 64},
{12, 66},
{12, 67},
{12, 70},
{12, 72},
{12, 73},
{12, 76},
{12, 77},
{12, 78},
{12, 80},
{12, 82},
{12, 84},
{12, 87},
{12, 89},
{12, 93},
{12, 102},
{12, 103},
{12, 104},
{12, 107},
{12, 108},
{12, 109},
{12, 112},
{12, 114},
{12, 115},
{12, 116},
{12, 118},
{13, 16},
{13, 18},
{13, 19},
{13, 22},
{13, 25},
{13, 26},
{13, 29},
{13, 30},
{13, 31},
{13, 32},
{13, 35},
{13, 36},
{13, 37},
{13, 38},
{13, 40},
{13, 42},
{13, 46},
{13, 48},
{13, 49},
{13, 50},
{13, 51},
{13, 54},
{13, 55},
{13, 56},
{13, 60},
{13, 61},
{13, 63},
{13, 65},
{13, 70},
{13, 72},
{13, 73},
{13, 74},
{13, 75},
{13, 77},
{13, 78},
{13, 79},
{13, 80},
{13, 81},
{13, 83},
{13, 84},
{13, 85},
{13, 90},
{13, 91},
{13, 95},
{13, 97},
{13, 98},
{13, 99},
{13, 102},
{13, 104},
{13, 105},
{13, 108},
{13, 109},
{13, 112},
{13, 114},
{14, 15},
{14, 17},
{14, 19},
{14, 20},
{14, 21},
{14, 24},
{14, 28},
{14, 31},
{14, 32},
{14, 33},
{14, 34},
{14, 36},
{14, 38},
{14, 39},
{14, 41},
{14, 42},
{14, 43},
{14, 45},
{14, 46},
{14, 47},
{14, 48},
{14, 50},
{14, 53},
{14, 55},
{14, 56},
{14, 57},
{14, 59},
{14, 61},
{14, 62},
{14, 65},
{14, 67},
{14, 68},
{14, 70},
{14, 77},
{14, 80},
{14, 83},
{14, 87},
{14, 88},
{14, 89},
{14, 91},
{14, 93},
{14, 94},
{14, 98},
{14, 101},
{14, 104},
{14, 105},
{14, 107},
{14, 109},
{14, 110},
{14, 111},
{14, 113},
{14, 114},
{14, 115},
{14, 116},
{14, 118},
{14, 120},
{15, 16},
{15, 17},
{15, 18},
{15, 22},
{15, 25},
{15, 26},
{15, 29},
{15, 30},
{15, 32},
{15, 34},
{15, 37},
{15, 41},
{15, 42},
{15, 43},
{15, 45},
{15, 46},
{15, 47},
{15, 50},
{15, 53},
{15, 54},
{15, 56},
{15, 57},
{15, 61},
{15, 63},
{15, 66},
{15, 70},
{15, 73},
{15, 75},
{15, 79},
{15, 80},
{15, 81},
{15, 84},
{15, 85},
{15, 88},
{15, 89},
{15, 92},
{15, 94},
{15, 96},
{15, 98},
{15, 99},
{15, 103},
{15, 106},
{15, 108},
{15, 110},
{15, 111},
{15, 113},
{15, 114},
{15, 118},
{15, 119},
{15, 120},
{16, 17},
{16, 18},
{16, 19},
{16, 20},
{16, 21},
{16, 24},
{16, 29},
{16, 31},
{16, 32},
{16, 38},
{16, 39},
{16, 40},
{16, 42},
{16, 46},
{16, 48},
{16, 50},
{16, 51},
{16, 54},
{16, 55},
{16, 59},
{16, 61},
{16, 62},
{16, 63},
{16, 65},
{16, 67},
{16, 69},
{16, 70},
{16, 71},
{16, 72},
{16, 73},
{16, 76},
{16, 81},
{16, 84},
{16, 85},
{16, 86},
{16, 88},
{16, 91},
{16, 93},
{16, 95},
{16, 100},
{16, 102},
{16, 103},
{16, 104},
{16, 108},
{16, 109},
{16, 111},
{16, 112},
{16, 113},
{16, 114},
{16, 118},
{16, 119},
{17, 18},
{17, 19},
{17, 21},
{17, 23},
{17, 24},
{17, 26},
{17, 27},
{17, 31},
{17, 32},
{17, 33},
{17, 36},
{17, 37},
{17, 38},
{17, 39},
{17, 44},
{17, 47},
{17, 48},
{17, 49},
{17, 50},
{17, 52},
{17, 54},
{17, 55},
{17, 56},
{17, 61},
{17, 62},
{17, 65},
{17, 67},
{17, 68},
{17, 69},
{17, 70},
{17, 71},
{17, 74},
{17, 75},
{17, 78},
{17, 79},
{17, 80},
{17, 83},
{17, 84},
{17, 85},
{17, 86},
{17, 87},
{17, 90},
{17, 92},
{17, 93},
{17, 95},
{17, 96},
{17, 100},
{17, 103},
{17, 106},
{17, 108},
{17, 110},
{17, 115},
{17, 118},
{17, 119},
{18, 20},
{18, 24},
{18, 28},
{18, 30},
{18, 31},
{18, 33},
{18, 40},
{18, 41},
{18, 42},
{18, 43},
{18, 44},
{18, 46},
{18, 47},
{18, 48},
{18, 54},
{18, 58},
{18, 59},
{18, 60},
{18, 61},
{18, 62},
{18, 63},
{18, 65},
{18, 66},
{18, 72},
{18, 73},
{18, 74},
{18, 78},
{18, 79},
{18, 80},
{18, 81},
{18, 86},
{18, 87},
{18, 90},
{18, 92},
{18, 95},
{18, 98},
{18, 101},
{18, 102},
{18, 103},
{18, 104},
{18, 105},
{18, 108},
{18, 113},
{18, 114},
{18, 115},
{18, 116},
{18, 117},
{18, 118},
{19, 20},
{19, 29},
{19, 30},
{19, 31},
{19, 33},
{19, 35},
{19, 40},
{19, 42},
{19, 46},
{19, 47},
{19, 48},
{19, 49},
{19, 50},
{19, 51},
{19, 54},
{19, 55},
{19, 56},
{19, 58},
{19, 59},
{19, 61},
{19, 62},
{19, 63},
{19, 68},
{19, 69},
{19, 70},
{19, 72},
{19, 73},
{19, 75},
{19, 76},
{19, 77},
{19, 79},
{19, 82},
{19, 84},
{19, 86},
{19, 87},
{19, 90},
{19, 93},
{19, 95},
{19, 96},
{19, 97},
{19, 98},
{19, 99},
{19, 100},
{19, 101},
{19, 103},
{19, 104},
{19, 108},
{19, 109},
{19, 111},
{19, 112},
{19, 113},
{19, 114},
{19, 115},
{19, 116},
{19, 118},
{19, 119},
{19, 120},
{20, 22},
{20, 23},
{20, 27},
{20, 28},
{20, 29},
{20, 32},
{20, 33},
{20, 36},
{20, 38},
{20, 41},
{20, 42},
{20, 43},
{20, 45},
{20, 53},
{20, 56},
{20, 57},
{20, 59},
{20, 60},
{20, 62},
{20, 66},
{20, 71},
{20, 75},
{20, 76},
{20, 77},
{20, 78},
{20, 79},
{20, 80},
{20, 85},
{20, 86},
{20, 89},
{20, 90},
{20, 93},
{20, 94},
{20, 96},
{20, 97},
{20, 98},
{20, 99},
{20, 101},
{20, 104},
{20, 105},
{20, 112},
{20, 115},
{20, 116},
{20, 118},
{20, 119},
{21, 23},
{21, 24},
{21, 26},
{21, 28},
{21, 29},
{21, 30},
{21, 32},
{21, 33},
{21, 35},
{21, 36},
{21, 38},
{21, 41},
{21, 42},
{21, 43},
{21, 46},
{21, 49},
{21, 51},
{21, 52},
{21, 53},
{21, 54},
{21, 55},
{21, 60},
{21, 61},
{21, 62},
{21, 63},
{21, 66},
{21, 68},
{21, 69},
{21, 70},
{21, 73},
{21, 74},
{21, 75},
{21, 76},
{21, 78},
{21, 81},
{21, 86},
{21, 87},
{21, 88},
{21, 89},
{21, 90},
{21, 93},
{21, 94},
{21, 102},
{21, 103},
{21, 107},
{21, 111},
{21, 112},
{21, 113},
{21, 114},
{21, 116},
{21, 117},
{21, 119},
{22, 24},
{22, 25},
{22, 26},
{22, 27},
{22, 30},
{22, 32},
{22, 34},
{22, 35},
{22, 36},
{22, 37},
{22, 39},
{22, 40},
{22, 42},
{22, 44},
{22, 46},
{22, 47},
{22, 49},
{22, 50},
{22, 53},
{22, 55},
{22, 57},
{22, 59},
{22, 61},
{22, 63},
{22, 64},
{22, 67},
{22, 68},
{22, 70},
{22, 71},
{22, 72},
{22, 74},
{22, 75},
{22, 76},
{22, 78},
{22, 79},
{22, 81},
{22, 84},
{22, 85},
{22, 86},
{22, 87},
{22, 88},
{22, 89},
{22, 90},
{22, 93},
{22, 98},
{22, 100},
{22, 101},
{22, 104},
{22, 105},
{22, 109},
{22, 118},
{22, 120},
{23, 26},
{23, 27},
{23, 29},
{23, 30},
{23, 32},
{23, 33},
{23, 36},
{23, 37},
{23, 39},
{23, 41},
{23, 42},
{23, 43},
{23, 44},
{23, 45},
{23, 47},
{23, 48},
{23, 49},
{23, 52},
{23, 54},
{23, 55},
{23, 56},
{23, 57},
{23, 60},
{23, 61},
{23, 65},
{23, 66},
{23, 67},
{23, 69},
{23, 71},
{23, 72},
{23, 73},
{23, 74},
{23, 75},
{23, 78},
{23, 80},
{23, 81},
{23, 85},
{23, 87},
{23, 88},
{23, 89},
{23, 91},
{23, 92},
{23, 93},
{23, 94},
{23, 96},
{23, 99},
{23, 103},
{23, 104},
{23, 107},
{23, 110},
{23, 111},
{23, 112},
{23, 116},
{23, 117},
{23, 119},
{24, 25},
{24, 27},
{24, 28},
{24, 30},
{24, 31},
{24, 32},
{24, 34},
{24, 35},
{24, 38},
{24, 40},
{24, 41},
{24, 45},
{24, 46},
{24, 50},
{24, 53},
{24, 56},
{24, 57},
{24, 59},
{24, 65},
{24, 68},
{24, 69},
{24, 70},
{24, 73},
{24, 77},
{24, 78},
{24, 79},
{24, 81},
{24, 82},
{24, 85},
{24, 87},
{24, 89},
{24, 91},
{24, 92},
{24, 94},
{24, 95},
{24, 96},
{24, 99},
{24, 101},
{24, 102},
{24, 104},
{24, 106},
{24, 108},
{24, 109},
{24, 110},
{24, 113},
{24, 116},
{24, 117},
{24, 118},
{24, 119},
{24, 120},
{25, 26},
{25, 29},
{25, 32},
{25, 34},
{25, 35},
{25, 36},
{25, 39},
{25, 43},
{25, 44},
{25, 47},
{25, 48},
{25, 50},
{25, 52},
{25, 53},
{25, 54},
{25, 58},
{25, 62},
{25, 63},
{25, 67},
{25, 69},
{25, 70},
{25, 71},
{25, 72},
{25, 73},
{25, 76},
{25, 79},
{25, 80},
{25, 83},
{25, 86},
{25, 87},
{25, 88},
{25, 90},
{25, 92},
{25, 95},
{25, 101},
{25, 104},
{25, 106},
{25, 107},
{25, 109},
{25, 115},
{25, 116},
{25, 117},
{25, 118},
{25, 119},
{26, 35},
{26, 38},
{26, 39},
{26, 42},
{26, 45},
{26, 46},
{26, 47},
{26, 49},
{26, 52},
{26, 57},
{26, 58},
{26, 62},
{26, 63},
{26, 64},
{26, 65},
{26, 67},
{26, 69},
{26, 70},
{26, 74},
{26, 78},
{26, 80},
{26, 82},
{26, 86},
{26, 89},
{26, 92},
{26, 93},
{26, 95},
{26, 97},
{26, 100},
{26, 101},
{26, 103},
{26, 104},
{26, 105},
{26, 106},
{26, 110},
{26, 112},
{26, 114},
{26, 117},
{26, 118},
{26, 120},
{27, 28},
{27, 31},
{27, 33},
{27, 34},
{27, 39},
{27, 42},
{27, 43},
{27, 44},
{27, 45},
{27, 48},
{27, 50},
{27, 51},
{27, 55},
{27, 59},
{27, 60},
{27, 66},
{27, 68},
{27, 69},
{27, 70},
{27, 71},
{27, 72},
{27, 73},
{27, 77},
{27, 81},
{27, 85},
{27, 86},
{27, 87},
{27, 90},
{27, 91},
{27, 94},
{27, 95},
{27, 99},
{27, 100},
{27, 101},
{27, 102},
{27, 104},
{27, 105},
{27, 106},
{27, 107},
{27, 110},
{27, 113},
{27, 115},
{27, 116},
{27, 118},
{27, 119},
{27, 120},
{28, 32},
{28, 36},
{28, 37},
{28, 39},
{28, 44},
{28, 46},
{28, 49},
{28, 52},
{28, 54},
{28, 59},
{28, 62},
{28, 63},
{28, 64},
{28, 65},
{28, 66},
{28, 68},
{28, 69},
{28, 73},
{28, 74},
{28, 78},
{28, 79},
{28, 80},
{28, 83},
{28, 86},
{28, 88},
{28, 91},
{28, 92},
{28, 95},
{28, 101},
{28, 102},
{28, 104},
{28, 106},
{28, 112},
{28, 113},
{28, 116},
{29, 31},
{29, 32},
{29, 33},
{29, 34},
{29, 35},
{29, 36},
{29, 37},
{29, 38},
{29, 40},
{29, 43},
{29, 44},
{29, 46},
{29, 47},
{29, 49},
{29, 51},
{29, 52},
{29, 55},
{29, 57},
{29, 58},
{29, 59},
{29, 60},
{29, 63},
{29, 64},
{29, 67},
{29, 69},
{29, 71},
{29, 72},
{29, 73},
{29, 75},
{29, 76},
{29, 77},
{29, 79},
{29, 81},
{29, 82},
{29, 83},
{29, 84},
{29, 86},
{29, 89},
{29, 92},
{29, 93},
{29, 94},
{29, 96},
{29, 97},
{29, 100},
{29, 103},
{29, 104},
{29, 106},
{29, 107},
{29, 111},
{29, 115},
{29, 116},
{29, 118},
{29, 119},
{29, 120},
{30, 32},
{30, 33},
{30, 34},
{30, 35},
{30, 36},
{30, 37},
{30, 38},
{30, 43},
{30, 44},
{30, 45},
{30, 47},
{30, 48},
{30, 50},
{30, 51},
{30, 52},
{30, 53},
{30, 56},
{30, 57},
{30, 60},
{30, 61},
{30, 62},
{30, 64},
{30, 65},
{30, 66},
{30, 68},
{30, 72},
{30, 75},
{30, 76},
{30, 77},
{30, 80},
{30, 85},
{30, 89},
{30, 94},
{30, 98},
{30, 99},
{30, 101},
{30, 103},
{30, 104},
{30, 105},
{30, 106},
{30, 107},
{30, 109},
{30, 115},
{30, 116},
{30, 117},
{30, 118},
{31, 33},
{31, 39},
{31, 41},
{31, 42},
{31, 43},
{31, 46},
{31, 47},
{31, 49},
{31, 51},
{31, 53},
{31, 54},
{31, 55},
{31, 57},
{31, 59},
{31, 61},
{31, 63},
{31, 65},
{31, 67},
{31, 73},
{31, 78},
{31, 79},
{31, 82},
{31, 83},
{31, 84},
{31, 87},
{31, 88},
{31, 90},
{31, 92},
{31, 93},
{31, 98},
{31, 99},
{31, 101},
{31, 102},
{31, 104},
{31, 105},
{31, 106},
{31, 107},
{31, 109},
{31, 111},
{31, 113},
{31, 115},
{31, 118},
{31, 119},
{31, 120},
{32, 36},
{32, 40},
{32, 41},
{32, 46},
{32, 53},
{32, 55},
{32, 56},
{32, 57},
{32, 58},
{32, 60},
{32, 62},
{32, 63},
{32, 64},
{32, 66},
{32, 68},
{32, 70},
{32, 72},
{32, 73},
{32, 74},
{32, 75},
{32, 76},
{32, 77},
{32, 81},
{32, 83},
{32, 90},
{32, 92},
{32, 94},
{32, 95},
{32, 99},
{32, 100},
{32, 101},
{32, 105},
{32, 106},
{32, 107},
{32, 108},
{32, 109},
{32, 111},
{32, 113},
{32, 114},
{32, 118},
{32, 119},
{33, 34},
{33, 35},
{33, 37},
{33, 38},
{33, 39},
{33, 40},
{33, 43},
{33, 45},
{33, 46},
{33, 48},
{33, 49},
{33, 54},
{33, 56},
{33, 57},
{33, 63},
{33, 65},
{33, 69},
{33, 70},
{33, 74},
{33, 75},
{33, 77},
{33, 81},
{33, 82},
{33, 83},
{33, 87},
{33, 90},
{33, 97},
{33, 99},
{33, 101},
{33, 103},
{33, 104},
{33, 106},
{33, 107},
{33, 108},
{33, 111},
{33, 112},
{33, 114},
{33, 117},
{33, 118},
{33, 120},
{34, 35},
{34, 37},
{34, 40},
{34, 41},
{34, 43},
{34, 46},
{34, 47},
{34, 49},
{34, 50},
{34, 52},
{34, 53},
{34, 55},
{34, 57},
{34, 59},
{34, 60},
{34, 61},
{34, 63},
{34, 64},
{34, 66},
{34, 67},
{34, 68},
{34, 69},
{34, 70},
{34, 72},
{34, 75},
{34, 79},
{34, 80},
{34, 83},
{34, 85},
{34, 86},
{34, 87},
{34, 88},
{34, 89},
{34, 90},
{34, 91},
{34, 97},
{34, 98},
{34, 100},
{34, 101},
{34, 106},
{34, 107},
{34, 108},
{34, 110},
{34, 111},
{34, 112},
{34, 114},
{34, 115},
{34, 116},
{34, 117},
{35, 37},
{35, 38},
{35, 39},
{35, 40},
{35, 43},
{35, 45},
{35, 46},
{35, 47},
{35, 50},
{35, 51},
{35, 54},
{35, 56},
{35, 58},
{35, 59},
{35, 64},
{35, 65},
{35, 74},
{35, 76},
{35, 77},
{35, 83},
{35, 85},
{35, 86},
{35, 87},
{35, 91},
{35, 92},
{35, 95},
{35, 99},
{35, 100},
{35, 104},
{35, 105},
{35, 108},
{35, 109},
{35, 110},
{35, 112},
{35, 115},
{35, 118},
{35, 119},
{36, 37},
{36, 41},
{36, 42},
{36, 44},
{36, 45},
{36, 48},
{36, 49},
{36, 50},
{36, 56},
{36, 58},
{36, 60},
{36, 63},
{36, 67},
{36, 68},
{36, 69},
{36, 71},
{36, 73},
{36, 74},
{36, 75},
{36, 80},
{36, 81},
{36, 84},
{36, 88},
{36, 89},
{36, 91},
{36, 93},
{36, 94},
{36, 95},
{36, 99},
{36, 100},
{36, 104},
{36, 107},
{36, 108},
{36, 111},
{36, 112},
{36, 113},
{36, 117},
{36, 119},
{37, 39},
{37, 42},
{37, 43},
{37, 45},
{37, 48},
{37, 49},
{37, 50},
{37, 51},
{37, 53},
{37, 54},
{37, 55},
{37, 57},
{37, 58},
{37, 60},
{37, 61},
{37, 62},
{37, 63},
{37, 64},
{37, 67},
{37, 68},
{37, 70},
{37, 75},
{37, 80},
{37, 83},
{37, 87},
{37, 91},
{37, 95},
{37, 96},
{37, 100},
{37, 101},
{37, 103},
{37, 105},
{37, 106},
{37, 109},
{37, 115},
{37, 116},
{37, 118},
{37, 119},
{37, 120},
{38, 39},
{38, 40},
{38, 44},
{38, 45},
{38, 47},
{38, 49},
{38, 50},
{38, 52},
{38, 53},
{38, 55},
{38, 56},
{38, 57},
{38, 59},
{38, 61},
{38, 62},
{38, 63},
{38, 65},
{38, 66},
{38, 68},
{38, 70},
{38, 72},
{38, 73},
{38, 74},
{38, 78},
{38, 81},
{38, 82},
{38, 84},
{38, 92},
{38, 93},
{38, 94},
{38, 95},
{38, 97},
{38, 102},
{38, 103},
{38, 105},
{38, 111},
{38, 112},
{38, 113},
{38, 115},
{38, 116},
{39, 40},
{39, 41},
{39, 42},
{39, 44},
{39, 46},
{39, 50},
{39, 53},
{39, 54},
{39, 56},
{39, 57},
{39, 58},
{39, 59},
{39, 60},
{39, 62},
{39, 63},
{39, 66},
{39, 68},
{39, 71},
{39, 74},
{39, 75},
{39, 76},
{39, 77},
{39, 78},
{39, 83},
{39, 86},
{39, 91},
{39, 92},
{39, 93},
{39, 94},
{39, 96},
{39, 97},
{39, 98},
{39, 99},
{39, 103},
{39, 104},
{39, 108},
{39, 109},
{39, 110},
{39, 114},
{39, 115},
{39, 116},
{39, 117},
{39, 120},
{40, 42},
{40, 43},
{40, 48},
{40, 49},
{40, 51},
{40, 56},
{40, 57},
{40, 59},
{40, 60},
{40, 62},
{40, 64},
{40, 65},
{40, 66},
{40, 67},
{40, 69},
{40, 70},
{40, 73},
{40, 74},
{40, 76},
{40, 77},
{40, 78},
{40, 85},
{40, 86},
{40, 88},
{40, 89},
{40, 92},
{40, 96},
{40, 98},
{40, 103},
{40, 105},
{40, 107},
{40, 110},
{40, 113},
{40, 114},
{40, 115},
{40, 116},
{40, 118},
{40, 119},
{41, 46},
{41, 48},
{41, 51},
{41, 55},
{41, 56},
{41, 57},
{41, 58},
{41, 59},
{41, 60},
{41, 62},
{41, 63},
{41, 68},
{41, 70},
{41, 71},
{41, 73},
{41, 81},
{41, 82},
{41, 83},
{41, 84},
{41, 85},
{41, 86},
{41, 87},
{41, 89},
{41, 91},
{41, 92},
{41, 94},
{41, 95},
{41, 98},
{41, 101},
{41, 102},
{41, 104},
{41, 107},
{41, 108},
{41, 111},
{41, 115},
{41, 116},
{41, 117},
{41, 118},
{41, 119},
{42, 44},
{42, 46},
{42, 47},
{42, 48},
{42, 52},
{42, 55},
{42, 57},
{42, 58},
{42, 61},
{42, 62},
{42, 63},
{42, 65},
{42, 69},
{42, 72},
{42, 75},
{42, 77},
{42, 78},
{42, 80},
{42, 82},
{42, 83},
{42, 84},
{42, 85},
{42, 88},
{42, 89},
{42, 93},
{42, 98},
{42, 99},
{42, 103},
{42, 104},
{42, 107},
{42, 109},
{42, 110},
{42, 111},
{42, 113},
{42, 119},
{42, 120},
{43, 47},
{43, 51},
{43, 52},
{43, 53},
{43, 54},
{43, 55},
{43, 57},
{43, 60},
{43, 62},
{43, 63},
{43, 64},
{43, 67},
{43, 68},
{43, 71},
{43, 72},
{43, 73},
{43, 75},
{43, 78},
{43, 80},
{43, 81},
{43, 83},
{43, 84},
{43, 88},
{43, 90},
{43, 92},
{43, 99},
{43, 101},
{43, 102},
{43, 104},
{43, 106},
{43, 107},
{43, 108},
{43, 111},
{43, 112},
{43, 116},
{43, 118},
{43, 120},
{44, 48},
{44, 50},
{44, 51},
{44, 52},
{44, 53},
{44, 54},
{44, 58},
{44, 59},
{44, 61},
{44, 62},
{44, 63},
{44, 65},
{44, 67},
{44, 68},
{44, 73},
{44, 75},
{44, 79},
{44, 80},
{44, 83},
{44, 84},
{44, 85},
{44, 87},
{44, 90},
{44, 91},
{44, 93},
{44, 96},
{44, 98},
{44, 99},
{44, 100},
{44, 103},
{44, 105},
{44, 107},
{44, 108},
{44, 110},
{44, 111},
{44, 113},
{44, 114},
{44, 116},
{44, 118},
{45, 46},
{45, 48},
{45, 50},
{45, 51},
{45, 52},
{45, 55},
{45, 56},
{45, 57},
{45, 58},
{45, 62},
{45, 63},
{45, 64},
{45, 65},
{45, 67},
{45, 68},
{45, 69},
{45, 70},
{45, 73},
{45, 76},
{45, 77},
{45, 78},
{45, 80},
{45, 82},
{45, 83},
{45, 84},
{45, 86},
{45, 88},
{45, 89},
{45, 91},
{45, 92},
{45, 93},
{45, 95},
{45, 96},
{45, 97},
{45, 100},
{45, 102},
{45, 103},
{45, 104},
{45, 106},
{45, 107},
{45, 109},
{45, 112},
{45, 114},
{45, 115},
{45, 116},
{45, 117},
{45, 119},
{46, 48},
{46, 51},
{46, 52},
{46, 56},
{46, 58},
{46, 60},
{46, 62},
{46, 66},
{46, 67},
{46, 68},
{46, 70},
{46, 72},
{46, 74},
{46, 78},
{46, 91},
{46, 95},
{46, 98},
{46, 100},
{46, 102},
{46, 103},
{46, 107},
{46, 109},
{46, 113},
{46, 114},
{46, 116},
{46, 117},
{47, 49},
{47, 52},
{47, 53},
{47, 54},
{47, 55},
{47, 56},
{47, 57},
{47, 61},
{47, 62},
{47, 64},
{47, 66},
{47, 68},
{47, 69},
{47, 72},
{47, 78},
{47, 79},
{47, 82},
{47, 93},
{47, 94},
{47, 97},
{47, 100},
{47, 101},
{47, 105},
{47, 106},
{47, 109},
{47, 110},
{47, 111},
{47, 112},
{47, 114},
{47, 116},
{47, 117},
{47, 119},
{48, 50},
{48, 51},
{48, 53},
{48, 54},
{48, 55},
{48, 56},
{48, 57},
{48, 59},
{48, 60},
{48, 62},
{48, 63},
{48, 65},
{48, 68},
{48, 76},
{48, 77},
{48, 78},
{48, 79},
{48, 80},
{48, 81},
{48, 87},
{48, 90},
{48, 92},
{48, 93},
{48, 95},
{48, 98},
{48, 99},
{48, 100},
{48, 101},
{48, 105},
{48, 111},
{48, 113},
{48, 114},
{48, 115},
{48, 116},
{48, 119},
{48, 120},
{49, 51},
{49, 53},
{49, 55},
{49, 56},
{49, 57},
{49, 58},
{49, 60},
{49, 63},
{49, 66},
{49, 67},
{49, 69},
{49, 70},
{49, 71},
{49, 72},
{49, 75},
{49, 77},
{49, 78},
{49, 79},
{49, 80},
{49, 81},
{49, 83},
{49, 85},
{49, 86},
{49, 87},
{49, 90},
{49, 91},
{49, 93},
{49, 97},
{49, 98},
{49, 99},
{49, 102},
{49, 103},
{49, 104},
{49, 106},
{49, 108},
{49, 109},
{49, 111},
{49, 113},
{49, 116},
{49, 118},
{49, 119},
{49, 120},
{50, 52},
{50, 54},
{50, 55},
{50, 56},
{50, 59},
{50, 62},
{50, 66},
{50, 67},
{50, 70},
{50, 71},
{50, 74},
{50, 82},
{50, 83},
{50, 84},
{50, 88},
{50, 89},
{50, 90},
{50, 91},
{50, 92},
{50, 95},
{50, 97},
{50, 98},
{50, 104},
{50, 106},
{50, 107},
{50, 110},
{50, 111},
{50, 112},
{51, 52},
{51, 53},
{51, 55},
{51, 57},
{51, 59},
{51, 60},
{51, 62},
{51, 67},
{51, 70},
{51, 75},
{51, 76},
{51, 77},
{51, 81},
{51, 83},
{51, 84},
{51, 85},
{51, 86},
{51, 87},
{51, 89},
{51, 91},
{51, 92},
{51, 93},
{51, 95},
{51, 96},
{51, 99},
{51, 100},
{51, 101},
{51, 102},
{51, 103},
{51, 108},
{51, 110},
{51, 111},
{51, 112},
{51, 113},
{51, 118},
{51, 119},
{51, 120},
{52, 53},
{52, 55},
{52, 57},
{52, 58},
{52, 59},
{52, 60},
{52, 61},
{52, 63},
{52, 65},
{52, 67},
{52, 68},
{52, 69},
{52, 71},
{52, 73},
{52, 74},
{52, 75},
{52, 76},
{52, 77},
{52, 78},
{52, 81},
{52, 83},
{52, 84},
{52, 86},
{52, 88},
{52, 89},
{52, 90},
{52, 91},
{52, 92},
{52, 96},
{52, 98},
{52, 99},
{52, 101},
{52, 105},
{52, 106},
{52, 107},
{52, 111},
{52, 113},
{52, 115},
{52, 116},
{52, 119},
{53, 54},
{53, 55},
{53, 56},
{53, 57},
{53, 58},
{53, 61},
{53, 62},
{53, 66},
{53, 67},
{53, 68},
{53, 69},
{53, 70},
{53, 71},
{53, 73},
{53, 74},
{53, 76},
{53, 79},
{53, 85},
{53, 86},
{53, 87},
{53, 89},
{53, 91},
{53, 94},
{53, 96},
{53, 97},
{53, 98},
{53, 99},
{53, 100},
{53, 101},
{53, 102},
{53, 103},
{53, 104},
{53, 105},
{53, 107},
{53, 109},
{53, 113},
{53, 115},
{53, 116},
{53, 117},
{53, 119},
{54, 55},
{54, 60},
{54, 62},
{54, 63},
{54, 64},
{54, 66},
{54, 73},
{54, 78},
{54, 79},
{54, 80},
{54, 81},
{54, 83},
{54, 84},
{54, 85},
{54, 87},
{54, 88},
{54, 94},
{54, 96},
{54, 98},
{54, 99},
{54, 103},
{54, 105},
{54, 106},
{54, 107},
{54, 111},
{54, 113},
{54, 117},
{54, 118},
{54, 119},
{55, 57},
{55, 58},
{55, 60},
{55, 61},
{55, 63},
{55, 64},
{55, 65},
{55, 66},
{55, 67},
{55, 68},
{55, 69},
{55, 75},
{55, 79},
{55, 81},
{55, 83},
{55, 84},
{55, 93},
{55, 94},
{55, 96},
{55, 99},
{55, 107},
{55, 108},
{55, 109},
{55, 110},
{55, 113},
{55, 114},
{55, 115},
{55, 119},
{55, 120},
{56, 57},
{56, 59},
{56, 61},
{56, 62},
{56, 64},
{56, 66},
{56, 68},
{56, 71},
{56, 72},
{56, 75},
{56, 79},
{56, 81},
{56, 82},
{56, 83},
{56, 84},
{56, 85},
{56, 86},
{56, 88},
{56, 89},
{56, 91},
{56, 92},
{56, 94},
{56, 96},
{56, 99},
{56, 101},
{56, 103},
{56, 105},
{56, 109},
{56, 110},
{56, 111},
{56, 114},
{56, 118},
{56, 119},
{57, 58},
{57, 60},
{57, 63},
{57, 66},
{57, 71},
{57, 73},
{57, 74},
{57, 76},
{57, 77},
{57, 78},
{57, 79},
{57, 81},
{57, 83},
{57, 84},
{57, 85},
{57, 86},
{57, 90},
{57, 92},
{57, 95},
{57, 96},
{57, 98},
{57, 99},
{57, 100},
{57, 101},
{57, 103},
{57, 104},
{57, 106},
{57, 107},
{57, 109},
{57, 110},
{57, 111},
{57, 113},
{57, 114},
{57, 115},
{57, 116},
{58, 59},
{58, 60},
{58, 64},
{58, 67},
{58, 71},
{58, 75},
{58, 77},
{58, 81},
{58, 83},
{58, 85},
{58, 87},
{58, 88},
{58, 90},
{58, 92},
{58, 94},
{58, 95},
{58, 96},
{58, 97},
{58, 98},
{58, 101},
{58, 107},
{58, 111},
{58, 112},
{58, 113},
{58, 114},
{58, 115},
{58, 116},
{58, 117},
{58, 118},
{58, 120},
{59, 61},
{59, 62},
{59, 64},
{59, 65},
{59, 67},
{59, 69},
{59, 70},
{59, 73},
{59, 75},
{59, 78},
{59, 79},
{59, 81},
{59, 83},
{59, 86},
{59, 89},
{59, 94},
{59, 96},
{59, 97},
{59, 98},
{59, 99},
{59, 100},
{59, 103},
{59, 104},
{59, 105},
{59, 107},
{59, 108},
{59, 109},
{59, 111},
{59, 112},
{59, 114},
{59, 115},
{59, 116},
{59, 118},
{59, 120},
{60, 62},
{60, 64},
{60, 66},
{60, 67},
{60, 68},
{60, 70},
{60, 71},
{60, 72},
{60, 75},
{60, 76},
{60, 77},
{60, 79},
{60, 80},
{60, 81},
{60, 82},
{60, 90},
{60, 91},
{60, 92},
{60, 95},
{60, 96},
{60, 97},
{60, 102},
{60, 104},
{60, 111},
{60, 113},
{60, 115},
{60, 116},
{60, 117},
{60, 119},
{61, 65},
{61, 67},
{61, 74},
{61, 77},
{61, 81},
{61, 83},
{61, 89},
{61, 90},
{61, 92},
{61, 95},
{61, 96},
{61, 100},
{61, 102},
{61, 103},
{61, 104},
{61, 107},
{61, 108},
{61, 109},
{61, 110},
{61, 111},
{61, 113},
{61, 114},
{61, 115},
{61, 117},
{61, 118},
{62, 63},
{62, 64},
{62, 67},
{62, 69},
{62, 70},
{62, 71},
{62, 73},
{62, 76},
{62, 78},
{62, 80},
{62, 83},
{62, 85},
{62, 86},
{62, 87},
{62, 88},
{62, 89},
{62, 93},
{62, 94},
{62, 97},
{62, 98},
{62, 99},
{62, 102},
{62, 105},
{62, 106},
{62, 113},
{62, 115},
{62, 117},
{62, 120},
{63, 64},
{63, 67},
{63, 70},
{63, 71},
{63, 74},
{63, 76},
{63, 77},
{63, 79},
{63, 80},
{63, 83},
{63, 84},
{63, 85},
{63, 87},
{63, 88},
{63, 89},
{63, 91},
{63, 92},
{63, 97},
{63, 98},
{63, 101},
{63, 103},
{63, 108},
{63, 110},
{63, 111},
{63, 115},
{63, 116},
{63, 117},
{63, 118},
{64, 66},
{64, 67},
{64, 71},
{64, 74},
{64, 75},
{64, 79},
{64, 82},
{64, 85},
{64, 99},
{64, 103},
{64, 104},
{64, 105},
{64, 107},
{64, 108},
{64, 109},
{64, 110},
{64, 111},
{64, 112},
{64, 113},
{64, 115},
{64, 117},
{64, 118},
{64, 119},
{64, 120},
{65, 68},
{65, 69},
{65, 73},
{65, 75},
{65, 77},
{65, 78},
{65, 80},
{65, 84},
{65, 85},
{65, 86},
{65, 87},
{65, 89},
{65, 90},
{65, 91},
{65, 93},
{65, 96},
{65, 97},
{65, 98},
{65, 99},
{65, 100},
{65, 101},
{65, 103},
{65, 105},
{65, 108},
{65, 112},
{65, 113},
{65, 117},
{65, 118},
{66, 69},
{66, 70},
{66, 72},
{66, 74},
{66, 75},
{66, 76},
{66, 80},
{66, 83},
{66, 86},
{66, 87},
{66, 89},
{66, 91},
{66, 92},
{66, 94},
{66, 95},
{66, 98},
{66, 100},
{66, 101},
{66, 108},
{66, 110},
{66, 111},
{66, 112},
{66, 113},
{66, 114},
{66, 115},
{66, 119},
{67, 68},
{67, 70},
{67, 71},
{67, 72},
{67, 76},
{67, 78},
{67, 81},
{67, 82},
{67, 83},
{67, 85},
{67, 86},
{67, 87},
{67, 88},
{67, 89},
{67, 90},
{67, 91},
{67, 92},
{67, 93},
{67, 94},
{67, 95},
{67, 99},
{67, 100},
{67, 101},
{67, 103},
{67, 104},
{67, 105},
{67, 107},
{67, 109},
{67, 110},
{67, 111},
{67, 115},
{67, 116},
{67, 119},
{68, 69},
{68, 70},
{68, 73},
{68, 75},
{68, 76},
{68, 78},
{68, 85},
{68, 88},
{68, 89},
{68, 90},
{68, 93},
{68, 94},
{68, 98},
{68, 100},
{68, 101},
{68, 102},
{68, 103},
{68, 104},
{68, 105},
{68, 106},
{68, 107},
{68, 108},
{68, 110},
{68, 111},
{68, 112},
{68, 115},
{68, 116},
{68, 117},
{68, 119},
{69, 71},
{69, 72},
{69, 73},
{69, 74},
{69, 76},
{69, 82},
{69, 83},
{69, 84},
{69, 86},
{69, 88},
{69, 89},
{69, 90},
{69, 91},
{69, 94},
{69, 98},
{69, 102},
{69, 104},
{69, 105},
{69, 108},
{69, 111},
{69, 113},
{69, 114},
{69, 115},
{69, 116},
{69, 117},
{69, 118},
{70, 71},
{70, 75},
{70, 76},
{70, 77},
{70, 78},
{70, 81},
{70, 82},
{70, 84},
{70, 86},
{70, 87},
{70, 88},
{70, 89},
{70, 90},
{70, 96},
{70, 98},
{70, 101},
{70, 103},
{70, 104},
{70, 105},
{70, 106},
{70, 108},
{70, 109},
{70, 111},
{70, 112},
{70, 115},
{70, 117},
{70, 119},
{70, 120},
{71, 72},
{71, 74},
{71, 75},
{71, 78},
{71, 80},
{71, 85},
{71, 87},
{71, 90},
{71, 92},
{71, 100},
{71, 101},
{71, 105},
{71, 107},
{71, 111},
{71, 116},
{71, 118},
{71, 119},
{71, 120},
{72, 76},
{72, 77},
{72, 81},
{72, 83},
{72, 84},
{72, 85},
{72, 86},
{72, 87},
{72, 91},
{72, 94},
{72, 95},
{72, 101},
{72, 102},
{72, 107},
{72, 108},
{72, 110},
{72, 111},
{72, 113},
{72, 115},
{72, 118},
{72, 120},
{73, 75},
{73, 76},
{73, 77},
{73, 78},
{73, 80},
{73, 82},
{73, 83},
{73, 84},
{73, 86},
{73, 89},
{73, 90},
{73, 94},
{73, 96},
{73, 98},
{73, 99},
{73, 100},
{73, 105},
{73, 106},
{73, 107},
{73, 108},
{73, 109},
{73, 110},
{73, 111},
{73, 112},
{73, 114},
{73, 115},
{73, 117},
{73, 120},
{74, 75},
{74, 76},
{74, 78},
{74, 81},
{74, 83},
{74, 85},
{74, 87},
{74, 88},
{74, 92},
{74, 93},
{74, 95},
{74, 98},
{74, 100},
{74, 101},
{74, 102},
{74, 103},
{74, 104},
{74, 106},
{74, 110},
{74, 112},
{74, 115},
{74, 117},
{74, 118},
{75, 79},
{75, 82},
{75, 83},
{75, 85},
{75, 86},
{75, 90},
{75, 93},
{75, 96},
{75, 98},
{75, 101},
{75, 103},
{75, 104},
{75, 105},
{75, 107},
{75, 113},
{75, 115},
{75, 118},
{75, 119},
{76, 78},
{76, 79},
{76, 80},
{76, 83},
{76, 87},
{76, 90},
{76, 92},
{76, 95},
{76, 96},
{76, 98},
{76, 100},
{76, 101},
{76, 103},
{76, 105},
{76, 108},
{76, 110},
{76, 119},
{76, 120},
{77, 78},
{77, 79},
{77, 83},
{77, 86},
{77, 88},
{77, 90},
{77, 92},
{77, 93},
{77, 94},
{77, 95},
{77, 96},
{77, 97},
{77, 101},
{77, 103},
{77, 104},
{77, 107},
{77, 109},
{77, 110},
{77, 111},
{77, 112},
{77, 113},
{77, 114},
{77, 115},
{77, 116},
{77, 119},
{78, 80},
{78, 84},
{78, 89},
{78, 90},
{78, 91},
{78, 92},
{78, 99},
{78, 100},
{78, 102},
{78, 103},
{78, 104},
{78, 106},
{78, 107},
{78, 111},
{78, 112},
{78, 113},
{78, 114},
{78, 115},
{78, 117},
{78, 120},
{79, 82},
{79, 86},
{79, 90},
{79, 91},
{79, 93},
{79, 95},
{79, 96},
{79, 97},
{79, 98},
{79, 99},
{79, 100},
{79, 101},
{79, 104},
{79, 105},
{79, 106},
{79, 107},
{79, 108},
{79, 109},
{79, 110},
{79, 111},
{79, 112},
{79, 113},
{79, 115},
{79, 116},
{79, 120},
{80, 83},
{80, 85},
{80, 86},
{80, 87},
{80, 90},
{80, 92},
{80, 93},
{80, 96},
{80, 98},
{80, 104},
{80, 105},
{80, 107},
{80, 108},
{80, 110},
{80, 112},
{80, 115},
{80, 116},
{80, 117},
{80, 118},
{81, 83},
{81, 90},
{81, 94},
{81, 95},
{81, 97},
{81, 98},
{81, 99},
{81, 100},
{81, 101},
{81, 102},
{81, 103},
{81, 107},
{81, 108},
{81, 109},
{81, 110},
{81, 111},
{81, 112},
{81, 113},
{81, 114},
{81, 120},
{82, 86},
{82, 90},
{82, 91},
{82, 92},
{82, 93},
{82, 94},
{82, 100},
{82, 101},
{82, 102},
{82, 103},
{82, 105},
{82, 109},
{82, 110},
{82, 111},
{82, 112},
{82, 116},
{82, 119},
{83, 84},
{83, 85},
{83, 86},
{83, 87},
{83, 92},
{83, 94},
{83, 96},
{83, 97},
{83, 99},
{83, 100},
{83, 101},
{83, 102},
{83, 105},
{83, 106},
{83, 108},
{83, 111},
{83, 112},
{83, 113},
{83, 117},
{83, 118},
{84, 85},
{84, 86},
{84, 90},
{84, 93},
{84, 96},
{84, 97},
{84, 98},
{84, 101},
{84, 102},
{84, 103},
{84, 104},
{84, 105},
{84, 106},
{84, 107},
{84, 111},
{84, 112},
{84, 119},
{84, 120},
{85, 86},
{85, 89},
{85, 90},
{85, 91},
{85, 92},
{85, 94},
{85, 96},
{85, 97},
{85, 100},
{85, 101},
{85, 102},
{85, 105},
{85, 106},
{85, 107},
{85, 108},
{85, 110},
{85, 112},
{85, 116},
{85, 119},
{86, 88},
{86, 89},
{86, 92},
{86, 96},
{86, 101},
{86, 102},
{86, 103},
{86, 106},
{86, 110},
{86, 111},
{86, 113},
{86, 114},
{86, 118},
{86, 119},
{86, 120},
{87, 89},
{87, 90},
{87, 92},
{87, 93},
{87, 96},
{87, 98},
{87, 99},
{87, 100},
{87, 101},
{87, 102},
{87, 104},
{87, 108},
{87, 111},
{87, 118},
{87, 120},
{88, 90},
{88, 93},
{88, 98},
{88, 100},
{88, 102},
{88, 104},
{88, 106},
{88, 107},
{88, 108},
{88, 109},
{88, 111},
{88, 114},
{88, 118},
{88, 120},
{89, 90},
{89, 92},
{89, 93},
{89, 95},
{89, 96},
{89, 97},
{89, 98},
{89, 100},
{89, 102},
{89, 105},
{89, 106},
{89, 109},
{89, 110},
{89, 112},
{89, 116},
{89, 118},
{89, 120},
{90, 93},
{90, 94},
{90, 95},
{90, 100},
{90, 101},
{90, 103},
{90, 104},
{90, 106},
{90, 107},
{90, 108},
{90, 109},
{90, 113},
{90, 114},
{90, 117},
{90, 118},
{90, 120},
{91, 94},
{91, 96},
{91, 97},
{91, 98},
{91, 101},
{91, 104},
{91, 105},
{91, 106},
{91, 107},
{91, 108},
{91, 112},
{91, 113},
{91, 114},
{91, 117},
{91, 118},
{92, 93},
{92, 94},
{92, 95},
{92, 96},
{92, 97},
{92, 98},
{92, 99},
{92, 100},
{92, 102},
{92, 105},
{92, 110},
{92, 118},
{93, 94},
{93, 95},
{93, 97},
{93, 100},
{93, 101},
{93, 102},
{93, 103},
{93, 105},
{93, 111},
{93, 114},
{93, 115},
{93, 116},
{93, 119},
{93, 120},
{94, 96},
{94, 98},
{94, 99},
{94, 101},
{94, 102},
{94, 103},
{94, 104},
{94, 105},
{94, 107},
{94, 109},
{94, 111},
{94, 113},
{94, 114},
{94, 118},
{94, 119},
{94, 120},
{95, 98},
{95, 101},
{95, 103},
{95, 105},
{95, 106},
{95, 107},
{95, 111},
{95, 114},
{95, 115},
{95, 119},
{95, 120},
{96, 97},
{96, 100},
{96, 101},
{96, 104},
{96, 107},
{96, 108},
{96, 109},
{96, 110},
{96, 112},
{96, 114},
{96, 117},
{96, 118},
{96, 119},
{96, 120},
{97, 98},
{97, 100},
{97, 103},
{97, 105},
{97, 106},
{97, 108},
{97, 110},
{97, 112},
{97, 113},
{97, 115},
{97, 116},
{97, 118},
{98, 99},
{98, 101},
{98, 102},
{98, 103},
{98, 106},
{98, 109},
{98, 112},
{98, 115},
{98, 118},
{98, 119},
{99, 103},
{99, 105},
{99, 107},
{99, 120},
{100, 102},
{100, 103},
{100, 105},
{100, 108},
{100, 109},
{100, 110},
{100, 113},
{100, 114},
{100, 115},
{101, 104},
{101, 105},
{101, 107},
{101, 108},
{101, 110},
{101, 111},
{101, 113},
{101, 114},
{101, 116},
{101, 119},
{102, 103},
{102, 105},
{102, 106},
{102, 108},
{102, 111},
{102, 114},
{102, 119},
{102, 120},
{103, 105},
{103, 107},
{103, 108},
{103, 109},
{103, 111},
{103, 112},
{103, 114},
{103, 115},
{103, 118},
{103, 119},
{103, 120},
{104, 105},
{104, 106},
{104, 107},
{104, 109},
{104, 114},
{104, 116},
{104, 117},
{104, 118},
{105, 108},
{105, 115},
{105, 120},
{106, 107},
{106, 110},
{106, 112},
{106, 114},
{106, 116},
{106, 118},
{106, 120},
{107, 108},
{107, 109},
{107, 110},
{107, 112},
{107, 114},
{107, 119},
{108, 110},
{108, 112},
{108, 114},
{108, 115},
{108, 116},
{108, 117},
{108, 118},
{108, 119},
{108, 120},
{109, 112},
{109, 113},
{109, 115},
{109, 116},
{109, 118},
{109, 119},
{109, 120},
{110, 113},
{110, 115},
{110, 118},
{110, 120},
{111, 112},
{111, 114},
{111, 118},
{111, 119},
{111, 120},
{112, 114},
{112, 115},
{112, 116},
{112, 117},
{112, 119},
{112, 120},
{113, 115},
{113, 117},
{113, 118},
{113, 119},
{113, 120},
{114, 115},
{114, 116},
{114, 118},
{114, 120},
{115, 116},
{115, 120},
{116, 119},
{116, 120},
{117, 118}}
